(declare-const a Real)
(declare-const b Real)
(declare-const c Real)
(assert (= (* a b c) 1))
(assert (> a 0))
(assert (> b 0))
(assert (> c 0))
(assert (not (<= (+ (* -3789056 (pow b 4)) (* -2965760 (pow a 4)) (* 184992 (pow (+ a b) 4)) (* -7077888 (pow a (pow 3 -1)) (pow b (/ 11 3))) (* -3538944 (pow a (/ 10 3)) (pow b (/ 2 3))) (* 2993315606437430296576 (pow a 3) (pow b 3) (pow (+ (* 2843648 b) (* 11568128 a)) -2))) 0)))
(check-sat)
(get-model)
(exit)